pair_coeff * * tersoff myp2/manybody.myp2 Pb I NULL NULL NULL NULL  
 pair_coeff           1           3 lj/charmm/coul/long   1.4000000000000000E-002   2.2645400000000002     
 pair_coeff           2           3 lj/charmm/coul/long   5.7400000000000000E-002   2.7500000000000000     
 pair_coeff           3           3 lj/charmm/coul/long   1.5699999999999999E-002   1.0690999999999999     
 pair_coeff           3           4 lj/charmm/coul/long   5.1700000000000003E-002   2.1595000000000000     
 pair_coeff           4           4 lj/charmm/coul/long  0.17000000000000001        3.2500000000000000     
 pair_coeff           3           5 lj/charmm/coul/long   4.1399999999999999E-002   2.2343999999999999     
 pair_coeff           4           5 lj/charmm/coul/long  0.13639999999999999        3.3248000000000002     
 pair_coeff           5           5 lj/charmm/coul/long  0.10940000000000000        3.3997000000000002     
 pair_coeff           1           6 lj/charmm/coul/long   1.4000000000000000E-002   2.7099899999999999     
 pair_coeff           2           6 lj/charmm/coul/long   5.7400000000000000E-002   3.1000000000000001     
 pair_coeff           3           6 lj/charmm/coul/long   1.5699999999999999E-002   1.5145000000000000     
 pair_coeff           4           6 lj/charmm/coul/long   5.1700000000000003E-002   2.6050000000000000     
 pair_coeff           5           6 lj/charmm/coul/long   4.1399999999999999E-002   2.6798000000000002     
 pair_coeff           6           6 lj/charmm/coul/long   1.5699999999999999E-002   1.9600000000000000     
 pair_coeff           1           1 buck/coul/long   56287925.303760000       0.13125999999999999        0.0000000000000000     
 pair_coeff           1           2 buck/coul/long   82796.906409999996       0.32174000000000003        0.0000000000000000     
 pair_coeff           2           2 buck/coul/long   18234.670870000002       0.48221999999999998        557.55962999999997     
 pair_coeff           1           4 buck/coul/long   9807117.2814000007       0.15095000000000000        0.0000000000000000     
 pair_coeff           2           4 buck/coul/long   33881.014260000004       0.29999999999999999        0.0000000000000000     
 pair_coeff           1           5 buck/coul/long   9807117.2814000007       0.15095000000000000        0.0000000000000000     
 pair_coeff           2           5 buck/coul/long   33881.014260000004       0.34243000000000001        0.0000000000000000     
